# Solution for model r5_t9_m0_9 Batch Number: 2
# Finished Task: 3 / 9
# Makespan: 383.0, Total Distance: 62.0, Total Time: 0.3827
# R O S F Batch
0 0 7 0.0 0.0 -1
1 1 -1 0.0 0.0 -1
2 2 10 0.0 0.0 -1
3 3 11 0.0 0.0 -1
4 4 -1 0.0 0.0 -1
5 -1 -1 -1.0 -1.0 1
6 -1 -1 -1.0 -1.0 1
7 0 -1 351.0 381.0 0
8 -1 -1 -1.0 -1.0 1
9 -1 -1 -1.0 -1.0 0
10 2 -1 323.0 351.0 0
11 3 -1 351.0 383.0 0
12 -1 -1 -1.0 -1.0 1
13 -1 -1 -1.0 -1.0 0
